64 65 66 67 74 75 76 79 83 84 89 90 93 93 98 98 107 107 108 108 109 110 118 120 122 126 128 129 132 134 145 147 151 153 156 156 157 157 161 162 163 166 166 167 169 170 171 176 180 180 180 184 185 186 187 194 195 196 199 203 204 209 210 213 213 218 218 227 227 228 228 229 230 238 240 242 246 248 249 252 254 265 267 271 273 276 276 277 277 281 282 283 286 286 287 289 290 291 296 300 300 300 304 305 306 307 314 315 316 319 323 324 329 330 333 333 338 338 347 347 348 348 349 350 358 360 362 366 368 369 372 374 385 387 391 393 396 396 397 397 401 402 403 406 406 407 409 410 411 416 420 420 420 424 425 426 427 434 435 436 439 443 444 449 450 453 453 458 458 467 467 468 468 469 470 478 480 482 486 488 489 492 494 505 507 511 513 516 516 517 517 521 522 523 526 526 527 529 530 531 536 540 540 540